p tdp 39 73
4 11
28 29
2 36
23 33
1 7
22 30
9 26
34 38
22 33
13 24
12 32
18 25
4 8
10 14
11 39
35 37
3 17
7 27
22 24
21 27
16 33
29 34
19 37
5 6
37 39
6 20
2 15
9 10
17 31
20 23
2 19
21 29
10 39
25 32
27 31
11 16
12 30
34 39
12 22
11 15
9 32
3 32
26 36
29 33
17 28
26 39
11 23
12 38
13 36
6 37
26 34
3 12
20 37
4 35
6 15
4 26
10 30
28 34
18 24
18 22
6 28
12 13
31 34
13 22
6 39
22 36
6 31
7 37
1 32
11 12
10 13
29 38
7 16
